(set-info :source |printed by MathSAT|)
(declare-fun main@%tmp8.i_0_3 () Int)
(declare-fun .x.32 () Int)
(declare-fun .y.17 () Int)
(declare-fun .y.23 () Int)
(declare-fun .y.18 () Int)
(declare-fun .y.24 () Int)
(declare-fun main@%shadow.mem1.0_0_3 () (Array Int Int))
(declare-fun .x.33 () (Array Int Int))
(declare-fun main@%tmp10.i_0_3 () Int)
(declare-fun .x.34 () Int)
(declare-fun main@%shadow.mem.0_0_3 () (Array Int Int))
(declare-fun .x.35 () (Array Int Int))
(declare-fun main@%i.1.i_0_1 () Int)
(declare-fun .x.36 () Int)
(declare-fun main@%rv.0.i_0_1 () Int)
(declare-fun .y.25 () Int)
(declare-fun .y.19 () (Array Int Int))
(declare-fun .x.37 () (Array Int Int))
(declare-fun main@%tmp12.i_0_3 () Int)
(declare-fun .x.38 () Int)
(declare-fun main@%shadow.mem2.0_0_1 () (Array Int Int))
(declare-fun .y.26 () (Array Int Int))
(declare-fun main@%tmp2.i_0_3 () Int)
(declare-fun main@%x.0.i_1 () Int)
(declare-fun .loc.20 () Bool)
(declare-fun .loc.27 () Bool)
(declare-fun .loc.21 () Bool)
(declare-fun .loc.28 () Bool)
(declare-fun .loc.22 () Bool)
(declare-fun .loc.29 () Bool)
(declare-fun main@%tmp65.i_0 () Int)
(declare-fun main@%tmp61.i_0 () Int)
(declare-fun main@%tmp48.i_0 () Int)
(declare-fun main@%tmp21.i_0 () Int)
(declare-fun main@%tmp61.i_0_0 () Int)
(declare-fun main@%tmp65.i_0_0 () Int)
(define-fun .def_8 () Int (! main@%tmp8.i_0_3 :next |.x.32|))
(define-fun .def_10 () Int (! .y.17 :next |.y.23|))
(define-fun .def_12 () Int (! .y.18 :next |.y.24|))
(define-fun .def_14 () (Array Int Int) (! main@%shadow.mem1.0_0_3 :next |.x.33|))
(define-fun .def_16 () Int (! main@%tmp10.i_0_3 :next |.x.34|))
(define-fun .def_18 () (Array Int Int) (! main@%shadow.mem.0_0_3 :next |.x.35|))
(define-fun .def_20 () Int (! main@%i.1.i_0_1 :next |.x.36|))
(define-fun .def_22 () Int (! main@%rv.0.i_0_1 :next |.y.25|))
(define-fun .def_24 () (Array Int Int) (! .y.19 :next |.x.37|))
(define-fun .def_26 () Int (! main@%tmp12.i_0_3 :next |.x.38|))
(define-fun .def_28 () (Array Int Int) (! main@%shadow.mem2.0_0_1 :next |.y.26|))
(define-fun .def_30 () Int (! main@%tmp2.i_0_3 :next |main@%x.0.i_1|))
(define-fun .def_32 () Bool (! .loc.20 :next |.loc.27|))
(define-fun .def_34 () Bool (! .loc.21 :next |.loc.28|))
(define-fun .def_36 () Bool (! .loc.22 :next |.loc.29|))
(define-fun .def_53 () Int (! main@%tmp65.i_0 :next |.xtv.1|))
(define-fun .def_71 () Int (! main@%tmp61.i_0 :next |.xtv.2|))
(define-fun .def_72 () Int (! main@%tmp48.i_0 :next |.xtv.3|))
(define-fun .def_76 () Int (! main@%tmp21.i_0 :next |.xtv.4|))
(define-fun .def_307 () Int (! main@%tmp61.i_0_0 :next |.xpv.1|))
(define-fun .def_309 () Int (! main@%tmp65.i_0_0 :next |.xpv.2|))
(define-fun .def_108 () Bool (not .def_32))
(define-fun .def_62 () Bool (not .def_34))
(define-fun .def_305 () Bool (and .def_62 .def_108))
(define-fun .def_42 () Bool (not .def_36))
(define-fun .def_306 () Bool (! (and .def_42 .def_305) :init true))
(define-fun .def_301 () Bool (= .def_14 .x.33))
(define-fun .def_268 () Bool (= .def_22 0))
(define-fun .def_287 () Bool (not .def_268))
(define-fun .def_285 () Bool (= main@%x.0.i_1 0))
(define-fun .def_283 () Bool (= .x.38 .def_30))
(define-fun .def_281 () Bool (= .x.37 .def_28))
(define-fun .def_279 () Bool (= .x.36 .def_26))
(define-fun .def_133 () Bool (= .def_18 .x.35))
(define-fun .def_38 () Bool (= .def_16 .x.34))
(define-fun .def_190 () Bool (and .def_38 .def_133))
(define-fun .def_280 () Bool (and .def_190 .def_279))
(define-fun .def_282 () Bool (and .def_280 .def_281))
(define-fun .def_284 () Bool (and .def_282 .def_283))
(define-fun .def_286 () Bool (and .def_284 .def_285))
(define-fun .def_288 () Bool (and .def_286 .def_287))
(define-fun .def_289 () Bool (and .loc.27 .def_288))
(define-fun .def_290 () Bool (and .loc.28 .def_289))
(define-fun .def_45 () Bool (not .loc.29))
(define-fun .def_291 () Bool (and .def_45 .def_290))
(define-fun .def_277 () Bool (= .y.25 .def_30))
(define-fun .def_275 () Bool (= .x.35 .def_28))
(define-fun .def_273 () Bool (= .x.34 .def_26))
(define-fun .def_269 () Bool (and .loc.29 .def_268))
(define-fun .def_47 () Bool (not .loc.28))
(define-fun .def_270 () Bool (and .def_47 .def_269))
(define-fun .def_140 () Bool (not .loc.27))
(define-fun .def_271 () Bool (and .def_140 .def_270))
(define-fun .def_196 () Bool (= .x.36 0))
(define-fun .def_272 () Bool (and .def_196 .def_271))
(define-fun .def_274 () Bool (and .def_272 .def_273))
(define-fun .def_276 () Bool (and .def_274 .def_275))
(define-fun .def_278 () Bool (and .def_276 .def_277))
(define-fun .def_292 () Bool (or .def_278 .def_291))
(define-fun .def_129 () Bool (<= .def_30 .def_20))
(define-fun .def_267 () Bool (and .def_108 .def_129))
(define-fun .def_293 () Bool (and .def_267 .def_292))
(define-fun .def_234 () Bool (<= .def_26 .def_30))
(define-fun .def_262 () Bool (not .def_234))
(define-fun .def_161 () Int (* (- 1) .def_71))
(define-fun .def_258 () Int (+ .def_30 .def_161))
(define-fun .def_259 () Int (+ .def_8 .def_258))
(define-fun .def_260 () Bool (= .def_259 0))
(define-fun .def_80 () Int (* (- 1) .def_53))
(define-fun .def_252 () Int (+ .def_30 .def_80))
(define-fun .def_253 () Int (+ .def_16 .def_252))
(define-fun .def_254 () Bool (= .def_253 0))
(define-fun .def_246 () Int (* (- 1) main@%x.0.i_1))
(define-fun .def_247 () Int (+ .def_30 .def_246))
(define-fun .def_248 () Bool (= .def_247 (- 1)))
(define-fun .def_191 () Bool (and .def_32 .def_190))
(define-fun .def_242 () Bool (and .loc.27 .def_191))
(define-fun .def_243 () Bool (and .loc.28 .def_242))
(define-fun .def_244 () Bool (and .def_45 .def_243))
(define-fun .def_170 () Int (select .def_18 .def_53))
(define-fun .def_166 () Int (select .def_14 .def_71))
(define-fun .def_171 () Bool (= .def_166 .def_170))
(define-fun .def_245 () Bool (and .def_171 .def_244))
(define-fun .def_249 () Bool (and .def_245 .def_248))
(define-fun .def_50 () Bool (<= .def_16 0))
(define-fun .def_51 () Bool (not .def_50))
(define-fun .def_250 () Bool (and .def_51 .def_249))
(define-fun .def_54 () Bool (<= .def_53 0))
(define-fun .def_55 () Bool (not .def_54))
(define-fun .def_56 () Bool (or .def_50 .def_55))
(define-fun .def_251 () Bool (and .def_56 .def_250))
(define-fun .def_255 () Bool (and .def_251 .def_254))
(define-fun .def_144 () Bool (<= .def_8 0))
(define-fun .def_145 () Bool (not .def_144))
(define-fun .def_256 () Bool (and .def_145 .def_255))
(define-fun .def_147 () Bool (<= .def_71 0))
(define-fun .def_148 () Bool (not .def_147))
(define-fun .def_149 () Bool (or .def_144 .def_148))
(define-fun .def_257 () Bool (and .def_149 .def_256))
(define-fun .def_261 () Bool (and .def_257 .def_260))
(define-fun .def_263 () Bool (and .def_261 .def_262))
(define-fun .def_58 () Bool (= .def_20 .x.36))
(define-fun .def_264 () Bool (and .def_58 .def_263))
(define-fun .def_60 () Bool (= .def_24 .x.37))
(define-fun .def_265 () Bool (and .def_60 .def_264))
(define-fun .def_151 () Bool (= .def_26 .x.38))
(define-fun .def_266 () Bool (and .def_151 .def_265))
(define-fun .def_294 () Bool (or .def_266 .def_293))
(define-fun .def_240 () Bool (= .y.25 .def_26))
(define-fun .def_238 () Bool (= .x.35 .def_24))
(define-fun .def_236 () Bool (= .x.34 .def_20))
(define-fun .def_230 () Bool (and .def_32 .loc.29))
(define-fun .def_231 () Bool (and .def_47 .def_230))
(define-fun .def_232 () Bool (and .def_140 .def_231))
(define-fun .def_233 () Bool (and .def_196 .def_232))
(define-fun .def_235 () Bool (and .def_233 .def_234))
(define-fun .def_237 () Bool (and .def_235 .def_236))
(define-fun .def_239 () Bool (and .def_237 .def_238))
(define-fun .def_241 () Bool (and .def_239 .def_240))
(define-fun .def_295 () Bool (or .def_241 .def_294))
(define-fun .def_229 () Bool (and .def_34 .def_42))
(define-fun .def_296 () Bool (and .def_229 .def_295))
(define-fun .def_225 () Bool (<= .def_22 .def_20))
(define-fun .def_226 () Bool (not .def_225))
(define-fun .def_211 () Bool (and .def_36 .def_190))
(define-fun .def_212 () Bool (and .def_108 .def_211))
(define-fun .def_213 () Bool (and .loc.29 .def_212))
(define-fun .def_214 () Bool (and .def_47 .def_213))
(define-fun .def_215 () Bool (and .def_140 .def_214))
(define-fun .def_216 () Bool (and .def_171 .def_215))
(define-fun .def_217 () Bool (and .def_51 .def_216))
(define-fun .def_218 () Bool (and .def_56 .def_217))
(define-fun .def_219 () Bool (and .def_145 .def_218))
(define-fun .def_220 () Bool (and .def_149 .def_219))
(define-fun .def_221 () Bool (and .def_62 .def_220))
(define-fun .def_153 () Int (* (- 1) .x.36))
(define-fun .def_154 () Int (+ .def_20 .def_153))
(define-fun .def_155 () Bool (= .def_154 (- 1)))
(define-fun .def_222 () Bool (and .def_155 .def_221))
(define-fun .def_157 () Int (+ .def_20 .def_80))
(define-fun .def_158 () Int (+ .def_16 .def_157))
(define-fun .def_159 () Bool (= .def_158 0))
(define-fun .def_223 () Bool (and .def_159 .def_222))
(define-fun .def_162 () Int (+ .def_20 .def_161))
(define-fun .def_163 () Int (+ .def_8 .def_162))
(define-fun .def_164 () Bool (= .def_163 0))
(define-fun .def_224 () Bool (and .def_164 .def_223))
(define-fun .def_227 () Bool (and .def_224 .def_226))
(define-fun .def_64 () Bool (= .def_22 .y.25))
(define-fun .def_228 () Bool (and .def_64 .def_227))
(define-fun .def_297 () Bool (or .def_228 .def_296))
(define-fun .def_39 () Bool (= .def_8 .x.32))
(define-fun .def_298 () Bool (and .def_39 .def_297))
(define-fun .def_209 () Bool (= .def_22 main@%x.0.i_1))
(define-fun .def_207 () Bool (= .def_20 .x.38))
(define-fun .def_205 () Bool (= .x.32 .def_10))
(define-fun .def_202 () Bool (= .y.25 1))
(define-fun .def_199 () Bool (= .def_24 .y.26))
(define-fun .def_192 () Bool (and .def_42 .def_191))
(define-fun .def_193 () Bool (and .loc.28 .def_192))
(define-fun .def_194 () Bool (and .def_45 .def_193))
(define-fun .def_195 () Bool (and .def_140 .def_194))
(define-fun .def_197 () Bool (and .def_195 .def_196))
(define-fun .def_198 () Bool (and .def_62 .def_197))
(define-fun .def_200 () Bool (and .def_198 .def_199))
(define-fun .def_203 () Bool (and .def_200 .def_202))
(define-fun .def_103 () Bool (<= .def_22 .def_12))
(define-fun .def_204 () Bool (and .def_103 .def_203))
(define-fun .def_206 () Bool (and .def_204 .def_205))
(define-fun .def_208 () Bool (and .def_206 .def_207))
(define-fun .def_210 () Bool (and .def_208 .def_209))
(define-fun .def_299 () Bool (or .def_210 .def_298))
(define-fun .def_188 () Bool (= .def_30 main@%x.0.i_1))
(define-fun .def_98 () Int (* (- 1) .def_72))
(define-fun .def_184 () Int (+ .def_26 .def_98))
(define-fun .def_185 () Int (+ .def_20 .def_184))
(define-fun .def_186 () Bool (= .def_185 0))
(define-fun .def_175 () Bool (<= .def_26 0))
(define-fun .def_90 () Bool (<= .def_72 0))
(define-fun .def_91 () Bool (not .def_90))
(define-fun .def_178 () Bool (or .def_91 .def_175))
(define-fun .def_176 () Bool (not .def_175))
(define-fun .def_172 () Int (ite .def_171 .def_22 0))
(define-fun .def_173 () Bool (= .y.25 .def_172))
(define-fun .def_167 () (Array Int Int) (store .def_28 .def_72 .def_166))
(define-fun .def_168 () Bool (= .y.26 .def_167))
(define-fun .def_130 () Bool (not .def_129))
(define-fun .def_131 () Bool (and .def_39 .def_130))
(define-fun .def_132 () Bool (and .def_38 .def_131))
(define-fun .def_134 () Bool (and .def_132 .def_133))
(define-fun .def_135 () Bool (and .def_34 .def_134))
(define-fun .def_136 () Bool (and .def_108 .def_135))
(define-fun .def_137 () Bool (and .def_42 .def_136))
(define-fun .def_138 () Bool (and .loc.28 .def_137))
(define-fun .def_139 () Bool (and .def_45 .def_138))
(define-fun .def_141 () Bool (and .def_139 .def_140))
(define-fun .def_142 () Bool (and .def_51 .def_141))
(define-fun .def_143 () Bool (and .def_56 .def_142))
(define-fun .def_146 () Bool (and .def_143 .def_145))
(define-fun .def_150 () Bool (and .def_146 .def_149))
(define-fun .def_152 () Bool (and .def_150 .def_151))
(define-fun .def_156 () Bool (and .def_152 .def_155))
(define-fun .def_160 () Bool (and .def_156 .def_159))
(define-fun .def_165 () Bool (and .def_160 .def_164))
(define-fun .def_169 () Bool (and .def_165 .def_168))
(define-fun .def_174 () Bool (and .def_169 .def_173))
(define-fun .def_177 () Bool (and .def_174 .def_176))
(define-fun .def_179 () Bool (and .def_177 .def_178))
(define-fun .def_187 () Bool (and .def_179 .def_186))
(define-fun .def_189 () Bool (and .def_187 .def_188))
(define-fun .def_300 () Bool (or .def_189 .def_299))
(define-fun .def_302 () Bool (and .def_300 .def_301))
(define-fun .def_126 () Bool (<= .y.25 0))
(define-fun .def_127 () Bool (not .def_126))
(define-fun .def_123 () Bool (<= .y.23 0))
(define-fun .def_124 () Bool (not .def_123))
(define-fun .def_120 () Bool (<= .x.34 0))
(define-fun .def_121 () Bool (not .def_120))
(define-fun .def_117 () Bool (<= .x.36 0))
(define-fun .def_118 () Bool (not .def_117))
(define-fun .def_115 () Bool (= .y.24 0))
(define-fun .def_109 () Bool (and .def_39 .def_108))
(define-fun .def_110 () Bool (and .def_42 .def_109))
(define-fun .def_111 () Bool (and .loc.27 .def_110))
(define-fun .def_112 () Bool (and .def_45 .def_111))
(define-fun .def_113 () Bool (and .def_47 .def_112))
(define-fun .def_114 () Bool (and .def_62 .def_113))
(define-fun .def_116 () Bool (and .def_114 .def_115))
(define-fun .def_119 () Bool (and .def_116 .def_118))
(define-fun .def_122 () Bool (and .def_119 .def_121))
(define-fun .def_125 () Bool (and .def_122 .def_124))
(define-fun .def_128 () Bool (and .def_125 .def_127))
(define-fun .def_303 () Bool (or .def_128 .def_302))
(define-fun .def_106 () Bool (= .def_10 .y.23))
(define-fun .def_104 () Bool (not .def_103))
(define-fun .def_99 () Int (+ .def_12 .def_98))
(define-fun .def_100 () Int (+ .def_10 .def_99))
(define-fun .def_101 () Bool (= .def_100 0))
(define-fun .def_87 () Bool (<= .def_10 0))
(define-fun .def_92 () Bool (or .def_87 .def_91))
(define-fun .def_88 () Bool (not .def_87))
(define-fun .def_83 () Int (+ .def_16 .def_80))
(define-fun .def_84 () Int (+ .def_12 .def_83))
(define-fun .def_85 () Bool (= .def_84 0))
(define-fun .def_77 () (Array Int Int) (store .def_18 .def_53 .def_76))
(define-fun .def_78 () Bool (= .x.35 .def_77))
(define-fun .def_73 () (Array Int Int) (store .def_14 .def_72 .def_71))
(define-fun .def_74 () Bool (= .x.33 .def_73))
(define-fun .def_67 () Int (* (- 1) .y.24))
(define-fun .def_68 () Int (+ .def_12 .def_67))
(define-fun .def_69 () Bool (= .def_68 (- 1)))
(define-fun .def_40 () Bool (and .def_38 .def_39))
(define-fun .def_41 () Bool (and .def_32 .def_40))
(define-fun .def_43 () Bool (and .def_41 .def_42))
(define-fun .def_44 () Bool (and .loc.27 .def_43))
(define-fun .def_46 () Bool (and .def_44 .def_45))
(define-fun .def_48 () Bool (and .def_46 .def_47))
(define-fun .def_52 () Bool (and .def_48 .def_51))
(define-fun .def_57 () Bool (and .def_52 .def_56))
(define-fun .def_59 () Bool (and .def_57 .def_58))
(define-fun .def_61 () Bool (and .def_59 .def_60))
(define-fun .def_63 () Bool (and .def_61 .def_62))
(define-fun .def_65 () Bool (and .def_63 .def_64))
(define-fun .def_70 () Bool (and .def_65 .def_69))
(define-fun .def_75 () Bool (and .def_70 .def_74))
(define-fun .def_79 () Bool (and .def_75 .def_78))
(define-fun .def_86 () Bool (and .def_79 .def_85))
(define-fun .def_89 () Bool (and .def_86 .def_88))
(define-fun .def_93 () Bool (and .def_89 .def_92))
(define-fun .def_102 () Bool (and .def_93 .def_101))
(define-fun .def_105 () Bool (and .def_102 .def_104))
(define-fun .def_107 () Bool (and .def_105 .def_106))
(define-fun .def_304 () Bool (! (or .def_107 .def_303) :trans true))
(define-fun .def_342 () Bool (and .def_36 .def_62))
(define-fun .def_343 () Bool (and .def_108 .def_342))
(define-fun .def_323 () Int (* (- 1) .def_309))
(define-fun .def_339 () Int (+ .def_20 .def_323))
(define-fun .def_340 () Int (+ .def_16 .def_339))
(define-fun .def_341 () Bool (= .def_340 0))
(define-fun .def_344 () Bool (and .def_341 .def_343))
(define-fun .def_327 () Int (* (- 1) .def_307))
(define-fun .def_336 () Int (+ .def_20 .def_327))
(define-fun .def_337 () Int (+ .def_8 .def_336))
(define-fun .def_338 () Bool (= .def_337 0))
(define-fun .def_345 () Bool (and .def_338 .def_344))
(define-fun .def_346 () Bool (and .def_226 .def_345))
(define-fun .def_328 () Int (+ .def_30 .def_327))
(define-fun .def_329 () Int (+ .def_8 .def_328))
(define-fun .def_330 () Bool (= .def_329 0))
(define-fun .def_331 () Bool (and .def_262 .def_330))
(define-fun .def_324 () Int (+ .def_30 .def_323))
(define-fun .def_325 () Int (+ .def_16 .def_324))
(define-fun .def_326 () Bool (= .def_325 0))
(define-fun .def_332 () Bool (and .def_326 .def_331))
(define-fun .def_333 () Bool (and .def_32 .def_332))
(define-fun .def_334 () Bool (and .def_34 .def_333))
(define-fun .def_335 () Bool (and .def_42 .def_334))
(define-fun .def_347 () Bool (or .def_335 .def_346))
(define-fun .def_316 () Bool (<= .def_307 0))
(define-fun .def_317 () Bool (not .def_316))
(define-fun .def_318 () Bool (or .def_144 .def_317))
(define-fun .def_319 () Bool (and .def_145 .def_318))
(define-fun .def_313 () Bool (<= .def_309 0))
(define-fun .def_314 () Bool (not .def_313))
(define-fun .def_315 () Bool (or .def_50 .def_314))
(define-fun .def_320 () Bool (and .def_315 .def_319))
(define-fun .def_321 () Bool (and .def_51 .def_320))
(define-fun .def_310 () Int (select .def_18 .def_309))
(define-fun .def_308 () Int (select .def_14 .def_307))
(define-fun .def_311 () Bool (= .def_308 .def_310))
(define-fun .def_312 () Bool (not .def_311))
(define-fun .def_322 () Bool (and .def_312 .def_321))
(define-fun .def_348 () Bool (and .def_322 .def_347))
(define-fun .def_351 () Bool (! (not .def_348) :invar-property 0))
(assert true)
